Route #1: 40 5 12 9 38 22 50 23 43
Route #2: 18 10 17 44 14 51 28 8 46
Route #3: 19 7 15 4 39 26 21 47
Route #4: 41 45 42 37 29 24 6 53
Route #5: 25 1 52 27 16 35 48
Route #6: 13 49 33 11 55 20 31 30 54 34 2
Route #7: 32 36 3
Cost 718